Geographic Exponential Decay
80 298 185 178 209 86 275 166 98 204 12 199 179 152 228 267 219 174 151 237 99 44 154 153 81 0 134 50 33 190 25 306 192 72 40 131 70 149 118 180 17 205 80 218 100 69 114 255 62 189 242 169 121 165 299 15 18 27 14 291 28 172 83 207 36 139 39 246 161 303 77 106 300 119 46 132 200 156 145 197 279
p edge 320 320
e 0 162 6.0
e 0 307 92.0
e 0 12 83.0
e 1 129 3.0
e 1 0 4.0
e 2 145 96.0
e 2 1 1.0
e 3 201 2.0
e 3 2 1.0
e 4 44 64.0
e 4 3 1.0
e 5 155 9.0
e 5 4 2.0
e 6 69 34.0
e 6 5 7.0
e 7 203 1.0
e 7 6 1.0
e 8 249 1.0
e 8 7 1.0
e 9 16 16.0
e 9 8 4.0
e 10 221 3.0
e 10 9 1.0
e 11 172 87.0
e 11 10 3.0
e 12 237 4.0
e 12 228 30.0
e 13 164 2.0
e 13 11 5.0
e 14 243 11.0
e 14 192 93.0
e 14 45 82.0
e 14 13 17.0
e 15 17 30.0
e 15 226 62.0
e 15 204 35.0
e 17 106 89.0
e 17 71 29.0
e 18 52 86.0
e 18 141 14.0
e 18 211 52.0
e 18 14 11.0
e 19 68 1.0
e 19 18 90.0
e 20 21 2.0
e 20 19 2.0
e 22 115 5.0
e 22 20 1.0
e 23 76 4.0
e 23 22 6.0
e 24 273 1.0
e 24 23 1.0
e 25 26 86.0
e 25 93 81.0
e 25 75 97.0
e 25 24 62.0
e 27 316 95.0
e 27 114 65.0
e 27 28 4.0
e 28 151 100.0
e 28 97 43.0
e 29 66 10.0
e 29 25 74.0
e 30 60 1.0
e 30 29 2.0
e 31 278 3.0
e 31 30 2.0
e 32 55 2.0
e 32 31 16.0
e 33 34 42.0
e 33 218 38.0
e 33 202 63.0
e 33 32 95.0
e 35 40 32.0
e 35 33 38.0
e 36 77 17.0
e 36 42 20.0
e 36 37 90.0
e 38 142 1.0
e 38 35 1.0
e 39 205 37.0
e 39 102 66.0
e 39 230 78.0
e 40 242 83.0
e 40 62 65.0
e 41 272 5.0
e 41 38 8.0
e 43 89 1.0
e 43 41 1.0
e 44 206 36.0
e 44 313 59.0
e 46 227 87.0
e 46 103 51.0
e 46 47 71.0
e 46 43 48.0
e 48 161 16.0
e 48 46 86.0
e 49 186 8.0
e 49 48 2.0
e 50 248 61.0
e 50 267 51.0
e 50 86 64.0
e 51 277 1.0
e 51 49 1.0
e 52 128 43.0
e 53 195 1.0
e 53 51 2.0
e 54 107 1.0
e 54 53 1.0
e 56 57 1.0
e 56 54 2.0
e 58 133 1.0
e 58 56 1.0
e 59 165 6.0
e 61 281 1.0
e 61 58 2.0
e 62 292 74.0
e 62 225 18.0
e 63 231 3.0
e 63 61 3.0
e 64 274 2.0
e 64 63 2.0
e 65 90 1.0
e 65 64 5.0
e 67 69 39.0
e 69 222 6.0
e 70 219 34.0
e 70 83 5.0
e 70 72 83.0
e 72 114 80.0
e 72 73 17.0
e 74 288 12.0
e 74 65 11.0
e 77 137 19.0
e 77 152 29.0
e 78 79 7.0
e 78 74 17.0
e 80 100 80.0
e 80 178 59.0
e 80 204 94.0
e 81 117 27.0
e 81 194 43.0
e 81 219 85.0
e 82 95 1.0
e 82 78 2.0
e 83 144 94.0
e 83 116 64.0
e 84 85 4.0
e 84 82 5.0
e 86 190 94.0
e 86 87 15.0
e 88 145 22.0
e 91 158 7.0
e 91 84 6.0
e 92 171 3.0
e 92 91 3.0
e 94 262 5.0
e 94 92 1.0
e 96 192 74.0
e 98 232 67.0
e 98 139 1.0
e 98 314 100.0
e 99 256 84.0
e 99 300 70.0
e 99 180 87.0
e 100 101 34.0
e 100 104 72.0
e 105 219 34.0
e 106 108 89.0
e 106 250 46.0
e 109 110 1.0
e 109 94 5.0
e 111 112 3.0
e 111 109 1.0
e 113 114 62.0
e 118 169 33.0
e 118 228 80.0
e 118 165 22.0
e 119 120 87.0
e 119 121 100.0
e 119 156 95.0
e 121 122 91.0
e 121 299 73.0
e 123 134 80.0
e 124 275 44.0
e 125 308 4.0
e 125 111 2.0
e 126 174 56.0
e 126 125 1.0
e 127 252 6.0
e 127 126 10.0
e 130 131 2.0
e 131 145 13.0
e 131 135 7.0
e 132 138 35.0
e 132 238 57.0
e 132 199 37.0
e 132 127 73.0
e 134 218 65.0
e 134 136 97.0
e 139 275 54.0
e 139 255 78.0
e 140 218 8.0
e 143 193 4.0
e 143 132 38.0
e 146 147 5.0
e 146 143 4.0
e 148 149 70.0
e 149 150 93.0
e 149 151 17.0
e 151 152 78.0
e 152 153 91.0
e 153 154 20.0
e 153 191 94.0
e 154 156 89.0
e 154 287 71.0
e 156 196 85.0
e 157 159 3.0
e 157 146 20.0
e 160 168 1.0
e 160 157 1.0
e 161 163 14.0
e 161 294 4.0
e 165 205 34.0
e 166 199 61.0
e 166 167 61.0
e 166 260 60.0
e 169 170 46.0
e 169 275 82.0
e 172 173 42.0
e 172 267 50.0
e 174 270 17.0
e 174 293 79.0
e 175 220 4.0
e 175 160 3.0
e 176 199 34.0
e 177 178 50.0
e 178 179 85.0
e 179 295 60.0
e 179 180 11.0
e 180 181 52.0
e 182 183 6.0
e 182 175 4.0
e 184 185 87.0
e 184 182 7.0
e 185 187 94.0
e 185 233 97.0
e 188 189 33.0
e 189 190 74.0
e 189 258 22.0
e 190 191 100.0
e 192 214 56.0
e 197 198 1.0
e 197 200 10.0
e 197 285 29.0
e 200 286 33.0
e 200 204 25.0
e 205 207 90.0
e 207 208 25.0
e 207 209 61.0
e 209 210 30.0
e 209 234 23.0
e 212 213 2.0
e 212 184 1.0
e 215 216 3.0
e 215 212 6.0
e 217 223 1.0
e 217 215 4.0
e 224 228 67.0
e 229 289 10.0
e 229 217 3.0
e 235 236 5.0
e 235 229 9.0
e 237 239 82.0
e 237 240 31.0
e 241 317 1.0
e 241 235 6.0
e 242 244 52.0
e 242 245 71.0
e 246 247 16.0
e 246 250 6.0
e 246 251 85.0
e 253 254 1.0
e 253 241 1.0
e 255 257 11.0
e 255 259 46.0
e 261 263 3.0
e 261 253 4.0
e 264 265 1.0
e 264 261 2.0
e 266 267 10.0
e 268 269 26.0
e 268 264 1.0
e 269 271 4.0
e 276 279 58.0
e 276 268 2.0
e 279 280 51.0
e 279 282 97.0
e 283 284 1.0
e 283 276 1.0
e 290 291 56.0
e 290 283 6.0
e 291 296 24.0
e 291 297 7.0
e 298 299 16.0
e 298 300 61.0
e 298 301 26.0
e 299 300 1.0
e 302 303 32.0
e 302 290 5.0
e 303 304 92.0
e 303 305 14.0
e 306 309 13.0
e 306 310 48.0
e 306 311 73.0
e 306 302 69.0
e 312 315 3.0
e 312 306 7.0
e 318 319 14.0
e 318 312 11.0
